50	100	100	100
69	1	78
94	21	83
94	31	73
91	16	72
93	48	82
98	21	93
93	44	71
72	17	80
81	38	94
75	34	91
96	44	79
88	6	70
95	11	98
76	17	67
85	35	75
66	15	81
87	15	84
74	14	79
87	8	82
92	49	96
93	49	77
75	13	68
90	39	87
83	12	70
94	41	71
96	8	99
73	45	74
80	27	85
84	35	91
86	6	74
74	22	85
69	43	86
71	12	76
87	39	77
68	46	68
95	32	90
87	34	83
83	45	97
82	19	91
67	15	75
93	42	90
91	45	82
97	4	72
98	18	89
74	8	92
82	42	69
79	45	80
69	16	69
95	27	88
77	1	71
